FILENAME:   /home/mcs001/s132664/testsets/IP/miplib2017/graph20-80-1rand.mps.gz
SETTINGS:   settings_final_nosym_norestarts
TIMELIMIT:  7200
OUTPUTNAME: final_miplib_symretope_if_extended_generating_set_cpx_v802__settings_final_nosym_norestarts__2__
BINNAME:    bin/sbcs.linux.x86_64.gnu.opt.cpx
BASENAME:   graph20-80-1rand.mps.gz
SEED:       2
@01 /home/mcs001/s132664/testsets/IP/miplib2017/graph20-80-1rand.mps.gz ===========
@02 graph20-80-1rand.mps.gz
@03 1686656516
SCIP version 8.0.2 [precision: 8 byte] [memory: block] [mode: optimized] [LP solver: CPLEX 20.1.0.0] [GitHash: 5f0473c]
Copyright (C) 2002-2022 Konrad-Zuse-Zentrum fuer Informationstechnik Berlin (ZIB)

Symretope propagation methods - (c) Jasper van Doornmalen, Christopher Hojny.
[GitHash: 2fd0484]

reading parameter file <../settings/settings_final_nosym_norestarts.set> ...

Changed settings:
limits/time = 7200
limits/restarts = 0
misc/usesymmetry = 0
randomization/randomseedshift = 2
constraints/orbisack/sepafreq = -1
constraints/symresack/sepafreq = -1
propagating/symmetry/detectsubgroups = FALSE
propagating/symmetry/usesymretopes = FALSE
propagating/symmetry/relabelsymretopes = 0
propagating/symmetry/ofsymcomptiming = 0
constraints/symretope/sepafreq = -1
constraints/symretope/peek = FALSE


solving problem ...

original problem has 16263 variables (16263 bin, 0 int, 0 impl, 0 cont) and 55107 constraints
presolving:
(round 1, fast)       117 del vars, 117 del conss, 0 add conss, 117 chg bounds, 0 chg sides, 0 chg coeffs, 0 upgd conss, 0 impls, 117 clqs
(round 2, fast)       117 del vars, 3393 del conss, 0 add conss, 117 chg bounds, 0 chg sides, 0 chg coeffs, 0 upgd conss, 0 impls, 3393 clqs
(round 3, medium)     1755 del vars, 3393 del conss, 0 add conss, 117 chg bounds, 0 chg sides, 0 chg coeffs, 0 upgd conss, 0 impls, 117 clqs
(round 4, fast)       1755 del vars, 6669 del conss, 0 add conss, 117 chg bounds, 0 chg sides, 234 chg coeffs, 0 upgd conss, 0 impls, 117 clqs
(round 5, exhaustive) 1755 del vars, 6669 del conss, 0 add conss, 117 chg bounds, 0 chg sides, 234 chg coeffs, 48438 upgd conss, 0 impls, 117 clqs
(round 6, medium)     1872 del vars, 6669 del conss, 0 add conss, 117 chg bounds, 117 chg sides, 351 chg coeffs, 48438 upgd conss, 0 impls, 115 clqs
   (1.3s) probing: 51/14391 (0.4%) - 0 fixings, 0 aggregations, 0 implications, 0 bound changes
   (1.3s) probing aborted: 50/50 successive totally useless probings
presolving (7 rounds: 7 fast, 4 medium, 2 exhaustive):
 1872 deleted vars, 6671 deleted constraints, 0 added constraints, 117 tightened bounds, 0 added holes, 117 changed sides, 1170 changed coefficients
 0 implications, 115 cliques
presolved problem has 14391 variables (14391 bin, 0 int, 0 impl, 0 cont) and 48436 constraints
    115 constraints of type <setppc>
  48321 constraints of type <logicor>
transformed objective value is always integral (scale: 1)
Presolving Time: 1.25

 time | node  | left  |LP iter|LP it/n|mem/heur|mdpt |vars |cons |rows |cuts |sepa|confs|strbr|  dualbound   | primalbound  |  gap   | compl. 
t 1.5s|     1 |     0 |     0 |     - | trivial|   0 |  14k|  48k|   0 |   0 |  0 |   0 |   0 |-1.170000e+02 | 0.000000e+00 |    Inf | unknown
p 1.7s|     1 |     0 |     0 |     - |  clique|   0 |  14k|  48k|  48k|   0 |  0 |   0 |   0 |-1.170000e+02 |-1.000000e+00 |  Large | unknown
  9.9s|     1 |     0 |   296 |     - |   533M |   0 |  14k|  48k|  48k|   0 |  0 |  13 |   0 |-1.080000e+02 |-1.000000e+00 |  Large | unknown
 70.8s|     1 |     0 | 15809 |     - |   558M |   0 |  14k|  48k|  48k|  66 |  1 |  14 |   0 |-1.080000e+02 |-1.000000e+00 |  Large | unknown
  204s|     1 |     0 | 45497 |     - |   568M |   0 |  14k|  48k|  48k| 129 |  2 |  16 |   0 |-1.028644e+02 |-1.000000e+00 |  Large | unknown
  262s|     1 |     0 | 58602 |     - |   577M |   0 |  14k|  48k|  48k| 193 |  3 |  17 |   0 |-9.238978e+01 |-1.000000e+00 |9138.98%| unknown
  319s|     1 |     0 | 71141 |     - |   585M |   0 |  14k|  48k|  48k| 254 |  4 |  18 |   0 |-8.252206e+01 |-1.000000e+00 |8152.21%| unknown
  369s|     1 |     0 | 82056 |     - |   591M |   0 |  14k|  48k|  48k| 301 |  5 |  20 |   0 |-7.430093e+01 |-1.000000e+00 |7330.09%| unknown
  409s|     1 |     0 | 90607 |     - |   596M |   0 |  14k|  48k|  48k| 335 |  6 |  21 |   0 |-6.932217e+01 |-1.000000e+00 |6832.22%| unknown
  454s|     1 |     0 | 99554 |     - |   603M |   0 |  14k|  48k|  48k| 367 |  7 |  22 |   0 |-6.558322e+01 |-1.000000e+00 |6458.32%| unknown
  495s|     1 |     0 |107393 |     - |   608M |   0 |  14k|  48k|  48k| 395 |  8 |  23 |   0 |-6.244401e+01 |-1.000000e+00 |6144.40%| unknown
  525s|     1 |     0 |113682 |     - |   614M |   0 |  14k|  48k|  48k| 425 |  9 |  25 |   0 |-5.910208e+01 |-1.000000e+00 |5810.21%| unknown
  555s|     1 |     0 |120052 |     - |   620M |   0 |  14k|  48k|  48k| 453 | 10 |  28 |   0 |-5.689030e+01 |-1.000000e+00 |5589.03%| unknown
  583s|     1 |     0 |125824 |     - |   625M |   0 |  14k|  48k|  48k| 475 | 11 |  30 |   0 |-5.562293e+01 |-1.000000e+00 |5462.29%| unknown
  603s|     1 |     0 |129946 |     - |   630M |   0 |  14k|  48k|  48k| 492 | 12 |  31 |   0 |-5.493190e+01 |-1.000000e+00 |5393.19%| unknown
 time | node  | left  |LP iter|LP it/n|mem/heur|mdpt |vars |cons |rows |cuts |sepa|confs|strbr|  dualbound   | primalbound  |  gap   | compl. 
  625s|     1 |     0 |134411 |     - |   636M |   0 |  14k|  48k|  48k| 521 | 13 |  32 |   0 |-5.404754e+01 |-1.000000e+00 |5304.75%| unknown
  644s|     1 |     0 |138191 |     - |   642M |   0 |  14k|  48k|  48k| 538 | 14 |  33 |   0 |-5.330328e+01 |-1.000000e+00 |5230.33%| unknown
  662s|     1 |     0 |141871 |     - |   647M |   0 |  14k|  48k|  48k| 552 | 15 |  35 |   0 |-5.284780e+01 |-1.000000e+00 |5184.78%| unknown
  677s|     1 |     0 |144979 |     - |   653M |   0 |  14k|  48k|  48k| 563 | 16 |  36 |   0 |-5.257806e+01 |-1.000000e+00 |5157.81%| unknown
  714s|     1 |     0 |149805 |     - |   658M |   0 |  14k|  48k|  48k| 597 | 17 |  37 |   0 |-5.207270e+01 |-1.000000e+00 |5107.27%| unknown
  741s|     1 |     0 |154380 |     - |   663M |   0 |  14k|  48k|  49k| 620 | 18 |  40 |   0 |-5.143721e+01 |-1.000000e+00 |5043.72%| unknown
  760s|     1 |     0 |158208 |     - |   668M |   0 |  14k|  48k|  49k| 638 | 19 |  41 |   0 |-5.109687e+01 |-1.000000e+00 |5009.69%| unknown
  779s|     1 |     0 |161824 |     - |   674M |   0 |  14k|  48k|  49k| 652 | 20 |  43 |   0 |-5.082900e+01 |-1.000000e+00 |4982.90%| unknown
  786s|     1 |     0 |163337 |     - |   674M |   0 |  14k|  48k|  49k| 656 | 21 |  44 |   0 |-5.081363e+01 |-1.000000e+00 |4981.36%| unknown
  795s|     1 |     0 |165132 |     - |   675M |   0 |  14k|  48k|  49k| 671 | 22 |  45 |   0 |-5.076475e+01 |-1.000000e+00 |4976.48%| unknown
  815s|     1 |     0 |166524 |     - |   676M |   0 |  14k|  48k|  49k| 679 | 23 |  48 |   0 |-5.074021e+01 |-1.000000e+00 |4974.02%| unknown
  826s|     1 |     0 |167935 |     - |   676M |   0 |  14k|  48k|  49k| 694 | 24 |  49 |   0 |-5.069747e+01 |-1.000000e+00 |4969.75%| unknown
  833s|     1 |     0 |169391 |     - |   677M |   0 |  14k|  48k|  49k| 703 | 25 |  50 |   0 |-5.061143e+01 |-1.000000e+00 |4961.14%| unknown
  836s|     1 |     0 |169926 |     - |   677M |   0 |  14k|  48k|  49k| 707 | 26 |  51 |   0 |-5.060442e+01 |-1.000000e+00 |4960.44%| unknown
  841s|     1 |     0 |170969 |     - |   677M |   0 |  14k|  48k|  49k| 719 | 27 |  53 |   0 |-5.057541e+01 |-1.000000e+00 |4957.54%| unknown
 time | node  | left  |LP iter|LP it/n|mem/heur|mdpt |vars |cons |rows |cuts |sepa|confs|strbr|  dualbound   | primalbound  |  gap   | compl. 
  844s|     1 |     0 |171745 |     - |   678M |   0 |  14k|  48k|  49k| 727 | 28 |  55 |   0 |-5.055120e+01 |-1.000000e+00 |4955.12%| unknown
  859s|     1 |     0 |171968 |     - |   679M |   0 |  14k|  48k|  48k| 729 | 29 |  58 |   0 |-5.054820e+01 |-1.000000e+00 |4954.82%| unknown
  865s|     1 |     0 |172521 |     - |   679M |   0 |  14k|  48k|  49k| 736 | 30 |  60 |   0 |-5.054356e+01 |-1.000000e+00 |4954.36%| unknown
  866s|     1 |     0 |172633 |     - |   679M |   0 |  14k|  48k|  49k| 737 | 31 |  61 |   0 |-5.054346e+01 |-1.000000e+00 |4954.35%| unknown
 1161s|     1 |     2 |212611 |     - |   681M |   0 |  14k|  48k|  49k| 737 | 33 |  71 |  37 |-5.050132e+01 |-1.000000e+00 |4950.13%| unknown
d2054s|     4 |     5 |325889 |51085.3 |pscostdi|   2 |  14k|  48k|  48k|   0 |  1 |  71 | 138 |-5.050132e+01 |-2.000000e+00 |2425.07%| unknown
d3386s|    10 |    11 |524315 |39075.8 |adaptive|   3 |  14k|  48k|  48k|   0 |  1 |  71 | 264 |-5.044276e+01 |-3.000000e+00 |1581.43%| unknown

SCIP Status        : solving was interrupted [time limit reached]
Solving Time (sec) : 7200.04
Solving Nodes      : 39
Primal Bound       : -3.00000000000000e+00 (4 solutions)
Dual Bound         : -5.04427594678372e+01
Gap                : 1581.43 %
SCIP Status        : solving was interrupted [time limit reached]
Total Time         :    7200.35
  solving          :    7200.04
  presolving       :       1.25 (included in solving)
  reading          :       0.31
  copying          :       0.27 (2 #copies) (minimal 0.13, maximal 0.14, average 0.13)
Original Problem   :
  Problem name     : graph20-80-1rand
  Variables        : 16263 (16263 binary, 0 integer, 0 implicit integer, 0 continuous)
  Constraints      : 55107 initial, 55107 maximal
  Objective        : minimize, 117 non-zeros (abs.min = 1, abs.max = 1)
Presolved Problem  :
  Problem name     : t_graph20-80-1rand
  Variables        : 14391 (14391 binary, 0 integer, 0 implicit integer, 0 continuous)
  Constraints      : 48436 initial, 48698 maximal
  Objective        : minimize, 117 non-zeros (abs.min = 1, abs.max = 1)
  Nonzeros         : 170820 constraint, 13471 clique table
Presolvers         :   ExecTime  SetupTime  Calls  FixedVars   AggrVars   ChgTypes  ChgBounds   AddHoles    DelCons    AddCons   ChgSides   ChgCoefs
  boundshift       :       0.00       0.00      0          0          0          0          0          0          0          0          0          0
  convertinttobin  :       0.00       0.00      0          0          0          0          0          0          0          0          0          0
  domcol           :       0.06       0.00      1          0          0          0          0          0          0          0          0          0
  dualagg          :       0.00       0.00      0          0          0          0          0          0          0          0          0          0
  dualcomp         :       0.00       0.00      0          0          0          0          0          0          0          0          0          0
  dualinfer        :       0.00       0.00      0          0          0          0          0          0          0          0          0          0
  dualsparsify     :       0.08       0.00      1          0          0          0          0          0          0          0          0          0
  gateextraction   :       0.02       0.00      1          0          0          0          0          0          0          0          0          0
  implics          :       0.00       0.00      4          0          0          0          0          0          0          0          0          0
  inttobinary      :       0.00       0.00      0          0          0          0          0          0          0          0          0          0
  qpkktref         :       0.00       0.00      0          0          0          0          0          0          0          0          0          0
  redvub           :       0.00       0.00      0          0          0          0          0          0          0          0          0          0
  sparsify         :       0.08       0.00      1          0          0          0          0          0          0          0          0          0
  stuffing         :       0.00       0.00      0          0          0          0          0          0          0          0          0          0
  trivial          :       0.01       0.00      7          0          0          0          0          0          0          0          0          0
  tworowbnd        :       0.00       0.00      0          0          0          0          0          0          0          0          0          0
  dualfix          :       0.01       0.00      7          0          0          0          0          0          0          0          0          0
  genvbounds       :       0.00       0.00      0          0          0          0          0          0          0          0          0          0
  probing          :       0.04       0.00      1          0          0          0          0          0          0          0          0          0
  pseudoobj        :       0.00       0.00      0          0          0          0          0          0          0          0          0          0
  symmetry         :       0.00       0.00      0          0          0          0          0          0          0          0          0          0
  vbounds          :       0.02       0.00      1          0       1638          0          0          0          0          0          0          0
  knapsack         :       0.00       0.00      0          0          0          0          0          0          0          0          0          0
  setppc           :       0.01       0.00      5          0        117          0          0          0          2          0        117        117
  linear           :       0.35       0.04      6        117          0          0        117          0       6669          0          0        234
  logicor          :       0.37       0.03      5          0          0          0          0          0          0          0          0        819
  benders          :       0.00       0.00      0          0          0          0          0          0          0          0          0          0
  components       :       0.04       0.00      1          0          0          0          0          0          0          0          0          0
  root node        :          -          -      -          0          -          -          0          -          -          -          -          -
Constraints        :     Number  MaxNumber  #Separate #Propagate    #EnfoLP    #EnfoRelax  #EnfoPS    #Check   #ResProp    Cutoffs    DomReds       Cuts    Applied      Conss   Children
  benderslp        :          0          0          0          0         47          0          0         11          0          0          0          0          0          0          0
  integral         :          0          0          0          0         47          0          0         11          0          0       1422          0          0         12         74
  knapsack         :          0+         1          0      26131          0          0          0          0          0          0          0          0          0          0          0
  setppc           :        115+       124         32      31846          0          0          0          6      21344         32       2899          0          0          0          0
  logicor          :      48321+     48573         32      30135          0          0          0          4      36519         26        964          1          1          0          0
  benders          :          0          0          0          0          0          0          0          5          0          0          0          0          0          0          0
  countsols        :          0          0          0          0          0          0          0          5          0          0          0          0          0          0          0
  components       :          0          0          0          0          0          0          0          0          0          0          0          0          0          0          0
Constraint Timings :  TotalTime  SetupTime   Separate  Propagate     EnfoLP     EnfoPS     EnfoRelax   Check    ResProp    SB-Prop
  benderslp        :       0.00       0.00       0.00       0.00       0.00       0.00       0.00       0.00       0.00       0.00
  integral         :    2088.76       0.00       0.00       0.00    2088.75       0.00       0.00       0.01       0.00       0.00
  knapsack         :       0.01       0.00       0.00       0.00       0.00       0.00       0.00       0.00       0.00       0.00
  setppc           :       0.16       0.00       0.00       0.08       0.00       0.00       0.00       0.00       0.01       0.07
  logicor          :       1.44       0.03       0.31       0.88       0.00       0.00       0.00       0.01       0.04       0.16
  benders          :       0.00       0.00       0.00       0.00       0.00       0.00       0.00       0.00       0.00       0.00
  countsols        :       0.00       0.00       0.00       0.00       0.00       0.00       0.00       0.00       0.00       0.00
  components       :       0.00       0.00       0.00       0.00       0.00       0.00       0.00       0.00       0.00       0.00
Propagators        : #Propagate   #ResProp    Cutoffs    DomReds
  dualfix          :          2          0          0          0
  genvbounds       :          0          0          0          0
  nlobbt           :          0          0          0          0
  obbt             :          0          0          0          0
  probing          :          0          0          0          0
  pseudoobj        :        156          0          0          0
  redcost          :         33          0          0          0
  rootredcost      :          3          0          0          0
  symmetry         :          0          0          0          0
  vbounds          :        933          0          0          0
Propagator Timings :  TotalTime  SetupTime   Presolve  Propagate    ResProp    SB-Prop
  dualfix          :       0.01       0.00       0.01       0.00       0.00       0.00
  genvbounds       :       0.00       0.00       0.00       0.00       0.00       0.00
  nlobbt           :       0.00       0.00       0.00       0.00       0.00       0.00
  obbt             :       0.00       0.00       0.00       0.00       0.00       0.00
  probing          :       0.04       0.00       0.04       0.00       0.00       0.00
  pseudoobj        :       0.03       0.00       0.00       0.03       0.00       0.00
  redcost          :       0.08       0.00       0.00       0.08       0.00       0.00
  rootredcost      :       0.01       0.00       0.00       0.00       0.00       0.00
  symmetry         :       0.00       0.00       0.00       0.00       0.00       0.00
  vbounds          :       0.03       0.00       0.02       0.01       0.00       0.00
Conflict Analysis  :       Time      Calls    Success    DomReds  Conflicts   Literals    Reconvs ReconvLits   Dualrays   Nonzeros   LP Iters   (pool size: [10000,10000])
  propagation      :       0.00         57         56          -         88        4.2          0        0.0          -          -          -
  infeasible LP    :       0.00          1          1          -          1        2.0          0        0.0          1        2.0          0
  bound exceed. LP :       6.01         22         20          -       4464     3857.1         28       90.5          1      224.0        331
  strong branching :       0.00          0          0          -          0        0.0          0        0.0          -          -          0
  pseudo solution  :       0.00          0          0          -          0        0.0          0        0.0          -          -          -
  applied globally :       0.01          -          -          0        276      404.8          -          -          2          -          -
  applied locally  :          -          -          -          0          0        0.0          -          -          0          -          -
Separators         :   ExecTime  SetupTime      Calls  RootCalls    Cutoffs    DomReds  FoundCuts ViaPoolAdd  DirectAdd    Applied ViaPoolApp  DirectApp      Conss
  cut pool         :       0.10          -         86         60          -          -       3446       3462          -          -          -          -          -    (maximal pool size:       3446)
  aggregation      :       1.39       0.00         48         32          0          0        414        306          0        144        144          0          0
  > cmir           :          -          -          -          -          -          -          -        230          0        103        103          0          -
  > flowcover      :          -          -          -          -          -          -          -         20          0          9          9          0          -
  > knapsackcover  :          -          -          -          -          -          -          -         56          0         32         32          0          -
  cgmip            :       0.00       0.00          0          0          0          0          0          0          0          0          0          0          0
  clique           :       2.57       0.00         32         32          0          0          0          0          0          0          0          0          0
  closecuts        :       0.00       0.00          0          0          0          0          0          0          0          0          0          0          0
  convexproj       :       0.00       0.00          0          0          0          0          0          0          0          0          0          0          0
  disjunctive      :       0.00       0.00          0          0          0          0          0          0          0          0          0          0          0
  eccuts           :       0.00       0.00          0          0          0          0          0          0          0          0          0          0          0
  gauge            :       0.00       0.00          0          0          0          0          0          0          0          0          0          0          0
  gomory           :      10.87       0.00         20         10          0          0       2510       2604          0        377        377          0          0
  > gomorymi       :          -          -          -          -          -          -          -       1510          0        241        241          0          -
  > strongcg       :          -          -          -          -          -          -          -       1094          0        136        136          0          -
  impliedbounds    :       0.04       0.00         48         32          0          0          0          0          0          0          0          0          0
  interminor       :       0.00       0.00          0          0          0          0          0          0          0          0          0          0          0
  intobj           :       0.00       0.00          0          0          0          0          0          0          0          0          0          0          0
  mcf              :       0.04       0.00          1          1          0          0          0          0          0          0          0          0          0
  minor            :       0.00       0.00          0          0          0          0          0          0          0          0          0          0          0
  mixing           :       0.00       0.00          0          0          0          0          0          0          0          0          0          0          0
  oddcycle         :       0.00       0.00          0          0          0          0          0          0          0          0          0          0          0
  rapidlearning    :       0.07       0.00          0          0          0          0          0          0          0          0          0          0          0
  rlt              :       0.00       0.00         10         10          0          0          0          0          0          0          0          0          0
  zerohalf         :      19.27       0.00         30         20          0          0        522        552          0        483        483          0          0
Cutselectors       :   ExecTime  SetupTime      Calls  RootCalls   Selected     Forced   Filtered  RootSelec   RootForc   RootFilt 
  hybrid           :       0.03       0.00         46         31       1005          0       2458        737          0       1685
Pricers            :   ExecTime  SetupTime      Calls       Vars
  problem variables:       0.00          -          0          0
Branching Rules    :   ExecTime  SetupTime   BranchLP  BranchExt   BranchPS    Cutoffs    DomReds       Cuts      Conss   Children
  allfullstrong    :       0.00       0.00          0          0          0          0          0          0          0          0
  cloud            :       0.00       0.00          0          0          0          0          0          0          0          0
  distribution     :       0.00       0.00          0          0          0          0          0          0          0          0
  fullstrong       :       0.00       0.00          0          0          0          0          0          0          0          0
  inference        :       0.00       0.00          0          0          0          0          0          0          0          0
  leastinf         :       0.00       0.00          0          0          0          0          0          0          0          0
  lookahead        :       0.00       0.00          0          0          0          0          0          0          0          0
  mostinf          :       0.00       0.00          0          0          0          0          0          0          0          0
  multaggr         :       0.00       0.00          0          0          0          0          0          0          0          0
  nodereopt        :       0.00       0.00          0          0          0          0          0          0          0          0
  pscost           :       0.00       0.00          0          0          0          0          0          0          0          0
  random           :       0.00       0.00          0          0          0          0          0          0          0          0
  relpscost        :    2088.75       0.00         47          0          0          0       1422          0         13         74
  vanillafullstrong:       0.00       0.00          0          0          0          0          0          0          0          0
Primal Heuristics  :   ExecTime  SetupTime      Calls      Found       Best
  LP solutions     :       0.00          -          -          0          0
  relax solutions  :       0.00          -          -          0          0
  pseudo solutions :       0.00          -          -          0          0
  strong branching :       0.00          -          -          0          0
  actconsdiving    :       0.00       0.00          0          0          0
  adaptivediving   :     336.17       0.00          2          1          1
  alns             :       0.38       0.00          1          0          0
  bound            :       0.00       0.00          0          0          0
  clique           :       0.27       0.00          1          1          1
  coefdiving       :       0.00       0.00          0          0          0
  completesol      :       0.00       0.00          0          0          0
  conflictdiving   :      29.58       0.00          2          0          0
  crossover        :       0.00       0.00          0          0          0
  dins             :       0.00       0.00          0          0          0
  distributiondivin:      66.77       0.00          1          0          0
  dps              :       0.00       0.00          0          0          0
  dualval          :       0.00       0.00          0          0          0
  farkasdiving     :       0.00       0.00          0          0          0
  feaspump         :     118.43       0.00          1          0          0
  fixandinfer      :       0.00       0.00          0          0          0
  fracdiving       :      33.05       0.00          1          0          0
  gins             :       0.00       0.00          0          0          0
  guideddiving     :     105.72       0.00          1          0          0
  indicator        :       0.00       0.00          0          0          0
  intdiving        :       0.00       0.00          0          0          0
  intshifting      :       0.00       0.00          0          0          0
  linesearchdiving :     285.17       0.00          1          0          0
  localbranching   :       0.00       0.00          0          0          0
  locks            :       0.05       0.00          1          0          0
  lpface           :       0.00       0.00          0          0          0
  mpec             :       0.00       0.00          0          0          0
  multistart       :       0.00       0.00          0          0          0
  mutation         :       0.00       0.00          0          0          0
  nlpdiving        :       0.00       0.00          0          0          0
  objpscostdiving  :     189.71       0.00          1          0          0
  octane           :       0.00       0.00          0          0          0
  ofins            :       0.00       0.00          0          0          0
  oneopt           :       0.07       0.00          3          0          0
  padm             :       0.00       0.00          0          0          0
  proximity        :       0.00       0.00          0          0          0
  pscostdiving     :     539.29       0.00          2          1          1
  randrounding     :       0.55       0.00         32          0          0
  rens             :       0.50       0.00          1          0          0
  reoptsols        :       0.00       0.00          0          0          0
  repair           :       0.00       0.00          0          0          0
  rins             :       0.00       0.00          0          0          0
  rootsoldiving    :     170.21       0.00          1          0          0
  rounding         :       0.35       0.00         92          0          0
  shiftandpropagate:       0.00       0.00          0          0          0
  shifting         :       1.09       0.00         50          0          0
  simplerounding   :       0.00       0.00         93          0          0
  subnlp           :       0.00       0.00          0          0          0
  trivial          :       0.07       0.00          2          1          1
  trivialnegation  :       0.00       0.00          0          0          0
  trustregion      :       0.00       0.00          0          0          0
  trysol           :       0.00       0.00          0          0          0
  twoopt           :       0.00       0.00          0          0          0
  undercover       :       0.00       0.00          0          0          0
  vbounds          :       3.47       0.00          1          0          0
  veclendiving     :       0.04       0.00          1          0          0
  zeroobj          :       0.00       0.00          0          0          0
  zirounding       :       0.28       0.00         36          0          0
  other solutions  :          -          -          -          0          -
LP                 :       Time      Calls Iterations  Iter/call   Iter/sec  Time-0-It Calls-0-It    ItLimit
  primal LP        :     170.66         14          0       0.00       0.00     170.66         14
  dual LP          :    3022.13         93     623329    6775.32     206.25       0.01          1
  lex dual LP      :       0.00          0          0       0.00          -
  barrier LP       :       0.00          0          0       0.00          -       0.00          0
  resolve instable :       0.00          0          0       0.00          -
  diving/probing LP:    1868.29        262     602168    2298.35     322.31
  strong branching :    2085.63        477     453454     950.64     217.42          -          -        861
    (at root node) :          -         37      35954     971.73          -
  conflict analysis:       1.90         34        331       9.74     174.08
B&B Tree           :
  number of runs   :          1
  nodes            :         39 (37 internal, 2 leaves)
  feasible leaves  :          0
  infeas. leaves   :          2
  objective leaves :          0
  nodes (total)    :         39 (37 internal, 2 leaves)
  nodes left       :         36
  max depth        :         13
  max depth (total):         13
  backtracks       :         12 (30.8%)
  early backtracks :          0 (0.0%)
  nodes exc. ref.  :          0 (0.0%)
  delayed cutoffs  :          0
  repropagations   :          0 (0 domain reductions, 0 cutoffs)
  avg switch length:       3.05
  switching time   :     130.93
Root Node          :
  First LP value   : -1.08000000000000e+02
  First LP Iters   :        296 (64.57 Iter/sec)
  First LP Time    :       4.58
  Final Dual Bound : -5.05013244686171e+01
  Final Root Iters :     172633
  Root LP Estimate : -3.10918723667635e+01
Solution           :
  Solutions found  :          4 (4 improvements)
  First Solution   : +0.00000000000000e+00   (in run 1, after 1 nodes, 1.45 seconds, depth 0, found by <trivial>)
  Gap First Sol.   :   infinite
  Gap Last Sol.    :    1581.43 %
  Primal Bound     : -3.00000000000000e+00   (in run 1, after 10 nodes, 3386.11 seconds, depth 2023, found by <adaptivediving>)
  Dual Bound       : -5.04427594678372e+01
  Gap              :    1581.43 %
Integrals          :      Total       Avg%
  primal-dual      :  688452.58      95.62
  primal-ref       :          -          - (not evaluated)
  dual-ref         :          -          - (not evaluated)
written solution information to file <results/final_miplib_symretope_if_extended_generating_set_cpx_v802__settings_final_nosym_norestarts__2__graph20-80-1rand.mps.gz.sol>
@04 1686663716
